NAME lp_typeD_4881
OBJSENSE MAX
ROWS
 N  OBJ
 L  c0      
 L  c1      
 G  c2      
 G  c3      
 L  c_key_upper
 G  c_key_lower
 G  _chain_constr_1
 G  _chain_constr_2
 G  _chain_constr_3
 G  _chain_constr_4
 G  _chain_constr_5
 G  _chain_cycle
COLUMNS
    x0        OBJ       6.7405173913363892e-01
    x0        c0        1.3742187384945139e+00
    x0        c1        1.5859034348264061e+00
    x0        c2        1.5868730461885239e+00
    x0        c3        1.4409278285540306e+00
    x0        c_key_upper  1.9156448521879650e+00
    x0        c_key_lower  1.9156448521879650e+00
    x1        OBJ       5.4994779885921774e-01
    x1        c0        1.22064364155182
    x1        c1        1.5250584635775535e+00
    x1        c2        9.6744135848785873e-01
    x1        c3        1.8852467116334006e+00
    x1        c_key_upper  1.2303440303453650e+00
    x1        c_key_lower  1.2303440303453650e+00
    x2        OBJ       6.4039507374713023e-01
    x2        c0        1.7642700917693643e+00
    x2        c1        1.5254286889346191e+00
    x2        c2        1.5944243584642919e+00
    x2        c3        8.5754143933212135e-01
    x2        c_key_upper  1.3009902008479557e+00
    x2        c_key_lower  1.3009902008479557e+00
    x3        OBJ       0.963671131605738
    x3        c0        0.694043204144315
    x3        c1        7.6334247824387935e-01
    x3        c2        5.8375176676938834e-01
    x3        c3        6.5227535237936318e-01
    x3        c_key_upper  1.7379725454360133e+00
    x3        c_key_lower  1.7379725454360133e+00
    x4        OBJ       8.4645404824238413e-01
    x4        c0        8.6340506528954464e-01
    x4        c1        1.5246884099796238e+00
    x4        c2        1.7036423701760790e+00
    x4        c3        1.1440298174057784e+00
    x4        c_key_upper  1.4888111821069259e+00
    x4        c_key_lower  1.4888111821069259e+00
    _chain_var_0  _chain_constr_1  -1
    _chain_var_0  _chain_cycle  1
    _chain_var_1  _chain_constr_1  1
    _chain_var_1  _chain_constr_2  -1
    _chain_var_2  _chain_constr_2  1
    _chain_var_2  _chain_constr_3  -1
    _chain_var_3  _chain_constr_3  1
    _chain_var_3  _chain_constr_4  -1
    _chain_var_4  _chain_constr_4  1
    _chain_var_4  _chain_constr_5  -1
    _chain_var_5  _chain_constr_5  1
    _chain_var_5  _chain_cycle  -1
RHS
    RHS1      c0        3.4304357356737668e+01
    RHS1      c1        3.3860640563301587e+01
    RHS1      c2        8.8337717396552353e+00
    RHS1      c3        6.1198840670183978e+00
    RHS1      c_key_upper  3.8368814054621126e+01
    RHS1      c_key_lower  1.9184407027310563e+01
    RHS1      _chain_constr_1  10
    RHS1      _chain_constr_2  10
    RHS1      _chain_constr_3  10
    RHS1      _chain_constr_4  10
    RHS1      _chain_constr_5  10
    RHS1      _chain_cycle  10
BOUNDS
 UP BND1      x0        10
 UP BND1      x1        10
 UP BND1      x2        10
 UP BND1      x3        10
 UP BND1      x4        10
 UP BND1      _chain_var_0  100
 UP BND1      _chain_var_1  100
 UP BND1      _chain_var_2  100
 UP BND1      _chain_var_3  100
 UP BND1      _chain_var_4  100
 UP BND1      _chain_var_5  100
ENDATA
